nApps = 226
nRes = 9
nActs = 460
nNetworks = 6

assignmentToResources = [1,3,3,2,1,2,1,3,2,3,2,3,1,1,2,3,2,1,2,3,2,1,2,1,1,3,2,2,2,1,3,1,1,3,2,2,2,1,2,1,2,2,2,1,1,2,2,1,2,3,3,3,1,3,2,2,3,3,2,1,1,3,2,3,1,2,1,1,2,1,1,2,2,3,2,3,2,2,2,2,1,1,2,2,2,2,3,2,2,2,3,1,2,2,2,3,2,2,1,1,4,6,6,6,6,6,6,5,4,5,5,4,4,4,4,4,4,4,6,5,5,6,6,6,6,4,4,4,4,5,5,5,6,6,4,5,6,6,6,6,5,5,5,4,4,4,6,6,5,5,5,5,5,5,4,4,4,4,4,4,4,4,4,6,5,5,5,5,5,5,4,4,4,5,5,5,5,4,4,4,4,4,5,4,4,4,4,5,5,6,6,6,6,6,6,6,6,6,4,6,6,5,5,6,6,6,6,4,4,4,4,4,4,4,6,5,5,6,6,4,4,4,4,4,4,4,4,4,4,5,5,5,6,5,5,5,5,5,5,5,4,4,5,5,5,5,6,6,5,5,5,5,5,6,4,4,4,5,7,6,7,4,8,4,9,5,9,4,8,6,7,5,7,4,8,6,7,5,7,4,9,4,8,6,7,6,8,4,8,4,9,6,7,5,7,4,9,6,8,6,8,5,9,8,8,7,8,8,8,8,9,8,9,7,8,8,8,8,9,9,8,7,9,7,8,8,7,7,9,8,8,8,7,7,7,7,8,8,7,7,8,8,8,7,9,7,8,8,8,8,7,9,9,9,9,7,7,8,9,8,8,8,8,8,8,8,7,7,7,9,9,9,9,9,8,8,9,7,7,7,8,8,8,9,8,7,9,8,8,8,9,7,8,8,8,8,7,8,7,8,8,8,7,7,9,9,7,8,7,8,9,8,8,9,8,9,8,8,9,7,8,8,8,9,9,8,8,8,8,9,8,8,7,7,7,7,9,7,9,7,7,7,7,8,9,7,9,7,9,8,7,9,9,7,9,9,8,8,9,8];

processingTimes = [104,136,128,112,112,128,104,112,80,80,136,64,96,168,104,128,128,144,120,64,56,64,112,144,104,96,40,48,120,88,120,120,104,168,56,80,168,80,136,136,136,128,136,120,136,128,112,112,88,128,104,112,112,152,104,144,120,136,144,112,80,160,168,136,136,120,40,136,128,128,136,128,120,136,120,128,56,136,128,112,120,144,48,152,136,112,112,104,160,88,128,96,96,96,112,56,48,168,152,136,500,4,23,3,500,8,3,3,3,4,3,23,23,500,4,500,3,500,500,3,13,500,8,8,500,8,500,4,4,3,500,4,8,3,3,3,3,3,4,3,3,3,4,3,17,500,500,500,5,500,3,8,5,5,4,23,500,500,3,4,4,3,3,8,3,3,3,3,4,4,3,3,4,4,500,4,4,500,4,4,4,5,500,4,500,4,4,3,3,5,500,4,4,3,3,11,3,3,4,5,100,4,3,500,3,4,4,3,500,3,3,3,500,500,3,3,3,3,3,3,3,3,3,3,13,13,5,500,3,3,500,5,3,5,5,4,3,4,4,5,3,3,200,3,4,4,5,5,500,500,3,3,3,3,3,3,3,4,4,500,500,500,500,500,500,500,500,500,500,500,500,500,500,500,500,500,500,500,500,500,500,500,500,500,500,500,500,500,500,3,3,3,3,500,500,500,500,500,500,3,3,4,4,500,4,23,3,500,8,3,3,3,4,3,23,23,500,4,500,3,500,500,3,13,500,8,8,500,8,500,4,4,3,500,4,8,3,3,3,3,3,4,3,3,3,4,3,17,500,500,500,5,500,3,8,5,5,4,23,500,500,3,4,4,3,3,8,3,3,3,3,4,4,3,3,4,4,500,4,4,500,4,4,4,5,500,4,500,4,4,3,3,5,500,4,4,3,3,11,3,3,4,5,100,4,3,500,3,4,4,3,500,3,3,3,500,500,3,3,3,3,3,3,3,3,3,3,13,13,5,500,3,3,500,5,3,5,5,4,3,4,4,5,3,3,200,3,4,4,5,5,500,500,3,3,3,3,3,3,3];

periods = [20000,10000,100000,50000,10000,10000,20000,5000,100000,10000,10000,100000,20000,10000,100000,20000,50000,10000,10000,2000,20000,20000,20000,10000,10000,10000,10000,20000,10000,100000,10000,20000,10000,100000,50000,100000,100000,10000,100000,10000,100000,100000,20000,10000,20000,100000,10000,20000,20000,100000,100000,100000,100000,1000,10000,100000,10000,10000,10000,20000,10000,10000,10000,100000,20000,20000,100000,100000,10000,100000,5000,100000,10000,20000,20000,20000,100000,100000,100000,10000,20000,1000,100000,2000,100000,2000,2000,20000,20000,20000,100000,10000,50000,10000,100000,100000,10000,10000,10000,10000,20000,10000,10000,100000,100000,100000,100000,50000,10000,10000,10000,20000,20000,20000,20000,20000,20000,20000,5000,100000,100000,10000,10000,10000,100000,20000,20000,20000,20000,100000,100000,100000,20000,20000,10000,10000,2000,2000,2000,2000,20000,20000,20000,10000,10000,10000,10000,10000,10000,10000,10000,20000,20000,20000,100000,100000,100000,100000,20000,10000,10000,10000,10000,100000,100000,100000,100000,100000,100000,100000,10000,10000,10000,100000,100000,100000,100000,10000,10000,10000,10000,20000,10000,20000,20000,20000,20000,20000,20000,100000,100000,100000,100000,100000,100000,100000,100000,100000,100000,1000,1000,10000,100000,10000,10000,10000,10000,20000,20000,20000,20000,20000,10000,10000,10000,10000,10000,100000,100000,20000,20000,100000,100000,100000,100000,100000,100000,100000,5000,100000,100000,10000,20000,100000,100000,100000,100000,10000,10000,10000,20000,1000,2000,100000,100000,2000,2000,2000,20000,20000,50000,50000,10000,100000,10000,10000,10000,20000,20000,10000,10000,10000,10000,10000,10000,10000,10000,10000,10000,10000,10000,10000,10000,10000,10000,10000,10000,10000,10000,10000,10000,10000,10000,10000,10000,10000,10000,10000,10000,20000,20000,20000,20000,20000,20000,20000,20000,20000,20000,100000,100000,100000,100000,20000,10000,10000,100000,100000,100000,100000,50000,10000,10000,10000,20000,20000,20000,20000,20000,20000,20000,5000,100000,100000,10000,10000,10000,100000,20000,20000,20000,20000,100000,100000,100000,20000,20000,10000,10000,2000,2000,2000,2000,20000,20000,20000,10000,10000,10000,10000,10000,10000,10000,10000,20000,20000,20000,100000,100000,100000,100000,20000,10000,10000,10000,10000,100000,100000,100000,100000,100000,100000,100000,10000,10000,10000,100000,100000,100000,100000,10000,10000,10000,10000,20000,10000,20000,20000,20000,20000,20000,20000,100000,100000,100000,100000,100000,100000,100000,100000,100000,100000,1000,1000,10000,100000,10000,10000,10000,10000,20000,20000,20000,20000,20000,10000,10000,10000,10000,10000,100000,100000,20000,20000,100000,100000,100000,100000,100000,100000,100000,5000,100000,100000,10000,20000,100000,100000,100000,100000,10000,10000,10000,20000,1000,2000,100000,100000,2000,2000,2000,20000,20000,50000,50000,10000,100000,10000,10000,10000];

assignmentToClusters = [1,2,3,4,5,6,7,8,9,10,11,12,13,14,15,16,17,10,18,19,20,21,22,10,23,10,24,25,10,26,10,16,27,3,17,28,29,10,30,10,31,32,33,10,20,28,10,34,35,36,37,38,39,40,10,41,10,10,10,20,42,10,43,28,44,20,45,46,10,47,48,49,50,20,51,16,52,53,54,55,56,57,58,59,60,61,62,63,1,64,12,65,66,10,67,3,10,68,69,10,70,71,72,73,74,75,76,77,78,79,80,81,82,83,84,85,86,87,88,89,90,91,92,93,94,95,96,97,98,99,100,101,102,103,104,105,106,107,108,109,110,111,112,113,114,115,116,117,118,119,120,121,122,123,124,125,126,127,128,129,130,131,132,133,134,135,136,137,138,139,140,141,142,143,144,145,146,147,148,149,150,151,152,153,154,155,156,157,158,159,160,161,162,163,164,165,166,167,168,169,170,171,172,173,174,175,176,177,178,179,180,181,182,183,184,185,186,187,188,189,190,191,192,193,194,195,196,197,198,199,200,201,202,203,204,205,206,207,208,209,210,211,212,213,214,215,216,217,218,219,220,221,222,223,224,225,226,1,1,10,10,10,10,10,10,10,10,10,10,10,10,10,10,10,10,10,10,10,10,10,10,10,10,10,10,10,10,10,10,16,16,16,16,20,20,20,20,20,20,28,28,28,28,70,71,72,73,74,75,76,77,78,79,80,81,82,83,84,85,86,87,88,89,90,91,92,93,94,95,96,97,98,99,100,101,102,103,104,105,106,107,108,109,110,111,112,113,114,115,116,117,118,119,120,121,122,123,124,125,126,127,128,129,130,131,132,133,134,135,136,137,138,139,140,141,142,143,144,145,146,147,148,149,150,151,152,153,154,155,156,157,158,159,160,161,162,163,164,165,166,167,168,169,170,171,172,173,174,175,176,177,178,179,180,181,182,183,184,185,186,187,188,189,190,191,192,193,194,195,196,197,198,199,200,201,202,203,204,205,206,207,208,209,210,211,212,213,214,215,216,217,218,219,220,221,222,223,224,225,226];

precedenceAdjList = [[258],[],[95],[],[],[],[],[],[],[],[],[90],[],[],[],[290],[34],[270,272],[],[],[],[],[],[260],[],[],[],[],[],[],[264,266],[292],[],[2],[],[300],[],[276,278],[],[37],[],[],[],[],[294],[],[286,288],[],[],[],[],[],[],[],[262],[],[280],[],[268],[44],[],[],[],[302],[],[298],[],[],[282],[],[],[],[],[296],[],[],[],[],[],[],[],[],[],[],[],[],[],[],[],[],[],[],[],[46],[],[],[68,274],[],[],[284],[],[],[],[],[],[],[],[],[],[],[],[],[],[],[],[],[],[],[],[],[],[],[],[],[],[],[],[],[],[],[],[],[],[],[],[],[],[],[],[],[],[],[],[],[],[],[],[],[],[],[],[],[],[],[],[],[],[],[],[],[],[],[],[],[],[],[],[],[],[],[],[],[],[],[],[],[],[],[],[],[],[],[],[],[],[],[],[],[],[],[],[],[],[],[],[],[],[],[],[],[],[],[],[],[],[],[],[],[],[],[],[],[],[],[],[],[],[],[],[],[],[],[],[],[],[],[],[],[],[],[],[],[],[],[],[],[],[],[],[],[],[],[],[],[],[],[],[],[],[],[],[],[],[],[],[],[],[88],[257],[9],[259],[23],[261],[23],[263],[58],[265],[17],[267],[57],[269],[96],[271],[37],[273],[25],[275],[28],[277],[39],[279],[99],[281],[61],[283],[30],[285],[43],[287],[31],[289],[75],[291],[20],[293],[44],[295],[73],[297],[63],[299],[45],[301],[100],[101],[102],[103],[104],[105],[106],[107],[108],[109],[110],[111],[112],[113],[114],[115],[116],[117],[118],[119],[120],[121],[122],[123],[124],[125],[126],[127],[128],[129],[130],[131],[132],[133],[134],[135],[136],[137],[138],[139],[140],[141],[142],[143],[144],[145],[146],[147],[148],[149],[150],[151],[152],[153],[154],[155],[156],[157],[158],[159],[160],[161],[162],[163],[164],[165],[166],[167],[168],[169],[170],[171],[172],[173],[174],[175],[176],[177],[178],[179],[180],[181],[182],[183],[184],[185],[186],[187],[188],[189],[190],[191],[192],[193],[194],[195],[196],[197],[198],[199],[200],[201],[202],[203],[204],[205],[206],[207],[208],[209],[210],[211],[212],[213],[214],[215],[216],[217],[218],[219],[220],[221],[222],[223],[224],[225],[226],[227],[228],[229],[230],[231],[232],[233],[234],[235],[236],[237],[238],[239],[240],[241],[242],[243],[244],[245],[246],[247],[248],[249],[250],[251],[252],[253],[254],[255],[256]];